
Gurobi 10.0.3 (linux64, gurobi_cl) logging started Thu Nov  9 11:47:19 2023

Set parameter Username
Set parameter TimeLimit to value 3600
Set parameter LogFile to value "RCPSP_1042.log"
Set parameter Threads to value 32
Academic license - for non-commercial use only - expires 2024-11-06
Using license file /home/jrivera6/gurobi-licenses/v1003/compute-0-36/gurobi.lic

Gurobi Optimizer version 10.0.3 build v10.0.3rc0 (linux64)
Copyright (c) 2023, Gurobi Optimization, LLC

Read MPS format model from file RCPSP_1042.mps
Reading time = 0.16 seconds
RCPSP_1042: 42919 rows, 17020 columns, 151024 nonzeros

CPU model: Intel(R) Xeon(R) Gold 6130 CPU @ 2.10GHz, instruction set [SSE2|AVX|AVX2|AVX512]
Thread count: 32 physical cores, 32 logical processors, using up to 32 threads

Optimize a model with 42919 rows, 17020 columns and 151024 nonzeros
Model fingerprint: 0x3ced006b
Variable types: 92 continuous, 16928 integer (16928 binary)
Coefficient statistics:
  Matrix range     [1e+00, 5e+02]
  Objective range  [1e+00, 1e+00]
  Bounds range     [1e+00, 1e+00]
  RHS range        [1e+00, 5e+02]
Presolve removed 9109 rows and 2248 columns (presolve time = 5s) ...
Presolve removed 10385 rows and 2642 columns
Presolve time: 5.27s
Presolved: 32534 rows, 14378 columns, 120098 nonzeros
Variable types: 91 continuous, 14287 integer (14287 binary)

Deterministic concurrent LP optimizer: primal and dual simplex (primal and dual model)
Showing first log only...

Root relaxation presolved: 32534 rows, 14378 columns, 120098 nonzeros


Root simplex log...

Iteration    Objective       Primal Inf.    Dual Inf.      Time
       0    9.2000713e+01   4.205209e-03   1.755586e+08      6s
    2962    9.2000000e+01   0.000000e+00   0.000000e+00      7s
Concurrent spin time: 0.75s

Solved with dual simplex (dual model)

Root relaxation: objective 9.200000e+01, 15721 iterations, 1.69 seconds (0.17 work units)
Total elapsed time = 10.33s

    Nodes    |    Current Node    |     Objective Bounds      |     Work
 Expl Unexpl |  Obj  Depth IntInf | Incumbent    BestBd   Gap | It/Node Time

     0     0   92.00000    0  472          -   92.00000      -     -   16s
     0     0   92.00000    0  464          -   92.00000      -     -   16s
     0     0   92.00000    0 1105          -   92.00000      -     -   37s
     0     0   92.00000    0 1016          -   92.00000      -     -   39s
     0     0   92.00000    0 1000          -   92.00000      -     -   39s
     0     0   92.00000    0 1598          -   92.00000      -     -   93s
     0     0   92.00000    0 1598          -   92.00000      -     -   93s
     0     0   92.00000    0 1588          -   92.00000      -     -   93s
     0     0   92.00000    0  340          -   92.00000      -     -  113s
     0     0   92.00000    0 1275          -   92.00000      -     -  118s
     0     0   92.00000    0  328          -   92.00000      -     -  134s
     0     0   92.00000    0  719          -   92.00000      -     -  137s
     0     0   92.00000    0  710          -   92.00000      -     -  137s
     0     0   92.00000    0  524          -   92.00000      -     -  152s
     0     0   92.00000    0  536          -   92.00000      -     -  153s
     0     0   92.00000    0  832          -   92.00000      -     -  158s
     0     0   92.00000    0  789          -   92.00000      -     -  159s
     0     0   92.00000    0  787          -   92.00000      -     -  159s
     0     0   92.00000    0  783          -   92.00000      -     -  159s
     0     0   92.00000    0  622          -   92.00000      -     -  176s
     0     0   92.00000    0  618          -   92.00000      -     -  176s
     0     0   92.00000    0  880          -   92.00000      -     -  184s
     0     0   92.00000    0  859          -   92.00000      -     -  185s
     0     0   92.00000    0  897          -   92.00000      -     -  186s
     0     0   92.00000    0  856          -   92.00000      -     -  187s
     0     0   92.00000    0  507          -   92.00000      -     -  207s
     0     0   92.00000    0  503          -   92.00000      -     -  208s
     0     0   92.00000    0  503          -   92.00000      -     -  215s
     0     2   92.00000    0  503          -   92.00000      -     -  258s
     1     4   92.00000    1  495          -   92.00000      -  3248  263s
     3     8   92.03727    2  480          -   92.00000      -  1209  272s
     7    14   92.40000    3  898          -   92.00000      -   790  293s
    15    25   92.40000    4  813          -   92.00000      -   856  315s
    29    40   93.00000    5  775          -   92.00000      -   738  334s
    54    63  100.00000    6  951          -   92.00000      -   569  354s
    86    93  100.00000    7  892          -   92.00000      -   684  378s
   118   124  100.00000    8  857          -   92.00000      -   787  389s
   150   156  100.00000    9  855          -   92.00000      -   651  397s
   182   194  100.00000   10  853          -   92.00000      -   548  405s
   220   224  100.00000   11  854          -   92.00000      -   467  413s
   256   259  100.00000   12  837          -   92.00000      -   409  423s
   295   290  100.00000   13  831          -   92.00000      -   362  434s
   333   327  100.00000   14  819          -   92.00000      -   327  443s
   379   369  100.00000   15  819          -   92.00000      -   292  455s
   423   415  100.00000   16  821          -   92.00000      -   267  464s
   472   462  100.00000   17  825          -   92.00000      -   243  473s
   522   512  100.00000   18  823          -   92.00000      -   224  484s
   574   565  100.00000   19  823          -   92.00000      -   209  493s
   628   627  100.00000   21  823          -   92.00000      -   195  502s
   691   684  100.00000   23  823          -   92.00000      -   180  514s
   751   748  100.00000   25  811          -   92.00000      -   170  524s
   819   803  100.00000   27  799          -   92.00000      -   160  532s
   878   864  100.00000   28  801          -   92.00000      -   153  547s
   947   929  100.00000   30  773          -   92.00000      -   146  556s
  1018  1011  100.00000   31  767          -   92.00000      -   141  569s
  1108  1096  100.00000   33  767          -   92.00000      -   132  581s
  1205  1219  100.00000   35  759          -   92.00000      -   126  592s
  1341  1351  100.00000   41  763          -   92.00000      -   120  603s
  1483  1480  100.00000   50  729          -   92.00000      -   114  616s
  1627  1634  100.00000   59  721          -   92.00000      -   115  629s
  1790  1803  100.00000   63  788          -   92.00000      -   112  643s
  1989  1963  100.00000   71  786          -   92.00000      -   107  660s
  2181  2113  100.00000   74  804          -   92.00000      -   103  744s
  2353  2113  106.00000   72  674          -   92.00000      -   102  872s
  2363  2207  100.00000   80  856          -   92.00000      -   102 1142s
  2376  2207  103.00000   78  771          -   92.00000      -   103 1145s
  2477  2422  100.00000   81  855          -   92.00000      -   107 1299s
  2496  2422   93.63384   41  995          -   92.00000      -   106 1304s
  2566  2422  103.00000   68 1199          -   92.00000      -   105 1305s
  2727  2490  100.00000   97  761          -   92.00000      -   104 1533s
  2813  2710  100.00000   98  753          -   92.00000      -   110 1641s
  3065  2887  100.00000  101  690          -   92.00000      -   107 1779s
  3248  2887   99.00000   96  829          -   92.00000      -   106 1780s
  3285  3001  100.00000  109  656          -   92.00000      -   106 2036s
  3368  3001  108.00000   93  805          -   92.00000      -   110 2040s
  3416  3241  100.00000  115  646          -   92.00000      -   111 2445s
  3686  3481 infeasible  131               -   92.00000      -   110 2845s
  3983  3689  103.00000  147  577          -   92.00000      -   109 3484s
  4233  3861  103.00000  155  609          -   92.00000      -   109 3950s

Cutting planes:
  Gomory: 28
  Lift-and-project: 11
  Cover: 203
  Implied bound: 175
  Clique: 13
  MIR: 2277
  StrongCG: 19
  Zero half: 5
  RLT: 1260
  Relax-and-lift: 346

Explored 4438 nodes (593890 simplex iterations) in 4182.51 seconds (61.72 work units)
Thread count was 32 (of 32 available processors)

Solution count 0

Time limit reached
Best objective -, best bound 9.200000000000e+01, gap -

Unable to retrieve attribute 'X'

